(assert (not (exists (( c Contribution))(edge Directly2HELPConserveEnergyEMS  c ))))
(assert (not (exists (( c DependerLink))(edge CommunicateWithTheHouse2UseHANToCommunicate  c ))))
(assert (exists (( c Actor))(node HomeGateway  c )))
(assert (not (exists (( c Goal))(node UseHANToCommunicate  c ))))
(assert (exists (( c DependerLink))(edge CommunicateWithTheHouse2UseHGToCommunicate  c )))
(assert (not (exists (( c Actor))(node HomeAreaNetwork  c ))))
(assert (exists (( c Goal))(node UseHGToCommunicate  c )))
(assert (exists (( c Contribution))(edge Directly2HURTConserveEnergyEMS  c )))
(assert (not (exists (( c Contribution))(edge ManageEncryptionKeys2SaveTimeC  c ))))
